n = 100; 
peso = [133, 136, 27, 115, 143, 85, 136, 42, 99, 121, 62, 127, 140, 109, 113, 76, 90, 126, 22, 136, 11, 68, 117, 129, 32, 80, 62, 73, 67, 85, 29, 102, 72, 108, 119, 117, 43, 106, 61, 142, 129, 123, 21, 119, 134, 37, 98, 74, 65, 120, 113, 76, 91, 80, 56, 123, 62, 20, 46, 31, 105, 75, 134, 27, 86, 5, 46, 129, 13, 107, 24, 45, 132, 45, 14, 117, 134, 14, 93, 50, 37, 108, 126, 128, 38, 84, 3, 101, 104, 49, 132, 60, 26, 18, 139, 112, 76, 36, 144,  89];